dimension          2
units              si 
atom_style	meso/multiphase
boundary	f f p
 
read_data 		   ./leadCircleOnly.dat
#read_data 		   ./LEADCircleOnly.dat
 
# Define Simulation Box 
variable		   xlow equal  -.293522
variable		   xhig equal  .880566
variable		   ylow equal  -.293522
variable		   yhig equal  .880566
variable		   zlow equal  -.00006
variable		   zhig equal  .00006
# we are using cubicspline kernel
variable		   radius equal .000348677547
variable		   lat equal 2*${radius}
variable		   h equal ${lat}*1.5
variable		   cutoff equal ${h}*2
variable		   cutoff2 equal ${lat}
variable		   h2 equal ${cutoff2}*0.5
variable		   cutoff3 equal ${radius}
#Define variables for the Walls 
variable		   wxlow2 equal  -${lat}*1
variable		   wxlow equal  0.0
variable		   wxhig2 equal  0.293522
variable		   wxhig equal  ${wxhig2}+${lat}*2
variable		   wylow equal  -${lat}*2
variable		   wylow2 equal  -${lat}*0.5
variable		   wylow3 equal  ${wylow}-${lat}
variable		   wyhig2 equal  0.293522
variable		   wyhig equal  ${wyhig2}+${lat}*2
variable		   wyhig3 equal  ${wyhig2}+${lat}*0.5
variable		   wyhig4 equal  ${wyhig}+${lat}*0.5
variable		   wxlow3 equal  ${wxlow2}-${lat}
variable		   wxlow4 equal  ${wxlow}-${lat}*0.5
variable		   wxlow5 equal  ${wxlow3}-${lat}
variable		   wxhig3 equal  ${wxhig}+${lat}*0.5
variable		   wxhig4 equal  ${wxhig2}+${lat}*0.5
 
variable		   ra equal 0.003026
 
#Creating the walls 
region			   wall1 block ${wxlow} ${wxhig4} ${wylow} ${wyhig3} EDGE EDGE side out units box
region			   wall2 block ${wxlow} ${wxhig3} ${wylow} ${wyhig4} EDGE EDGE side in units box
region			   wall intersect 2 wall1 wall2
region			   wall33 block ${wxlow5} ${wxlow4} ${wylow} ${wyhig3} EDGE EDGE side in units box
region			   wall44 block ${wxlow3} ${wxhig2} ${wylow3} ${wylow2} EDGE EDGE side in units box
group			   wall region wall 
group			   wall33 region wall33
group			   wall44 region wall44
group			   corner intersect wall33 wall44 
group			   wall3 subtract wall33 corner
group			   wall4 subtract wall44 corner 
group			   DEM type < 2401 
group			   circle1 type  1
group			   wall5 type  2401
 
variable 		   Vx equal multistepzigzag(8.15e-3,9e-4,3)                                  
#variable 		   zero equal 0                                                    
fix 			   linear3 wall3 move/improved linear v_Vx NULL NULL #units box 
fix 			   linear4 wall4 move/improved linear NULL v_Vx  NULL #units box
fix 			   freeze wall5 setforce 0 0 0
 
variable		   E equal 16e9                            
variable		   nu equal 0.44                           
variable		   G equal 5.6e9                           
variable		   K equal 46e9                            
variable		   sigma0 equal 10e6 #350e6                
variable		   B equal 2e6 #275e6                      
variable		   C equal 0.0170 #0.022                   
variable		   epsilonDot0 equal 1                     
variable		   Tref equal 298                          
variable		   Tmelt equal 600.61                      
variable		   n equal 0.36                            
variable		   m equal 1                               
variable		   rho0 equal 1134                         
variable		   c equal 1190 #5800                      
variable		   d0 equal ${radius}*2.0                  
variable		   thetaC equal 70                         
 
pair_style         hybrid/overlay sph/solidMechanics/mg  sph/colorgradient 1 sph/solidcontact # /mg = Mie-Gruneisen #/Murnaghan p = c0^2(rho - rho0)
pair_coeff         1 1 sph/solidMechanics/mg 1 1 ${cutoff} ${h} ${G} 1.81 ${c} 1.80 ${rho0} ${E} yes 0.3 ${lat} 0.5
pair_coeff         2 2 sph/solidMechanics/mg 1 1 ${cutoff} ${h} ${G} 1.81 ${c} 1.80 ${rho0} ${E} yes 0.3 ${lat} 0.5
pair_coeff         3 3 sph/solidMechanics/mg 1 1 ${cutoff} ${h} ${G} 1.81 ${c} 1.80 ${rho0} ${E} yes 0.3 ${lat} 0.5
pair_coeff         4 4 sph/solidMechanics/mg 1 1 ${cutoff} ${h} ${G} 1.81 ${c} 1.80 ${rho0} ${E} yes 0.3 ${lat} 0.5
pair_coeff         5 5 sph/solidMechanics/mg 1 1 ${cutoff} ${h} ${G} 1.81 ${c} 1.80 ${rho0} ${E} yes 0.3 ${lat} 0.5
pair_coeff         6 6 sph/solidMechanics/mg 1 1 ${cutoff} ${h} ${G} 1.81 ${c} 1.80 ${rho0} ${E} yes 0.3 ${lat} 0.5
pair_coeff         7 7 sph/solidMechanics/mg 1 1 ${cutoff} ${h} ${G} 1.81 ${c} 1.80 ${rho0} ${E} yes 0.3 ${lat} 0.5
pair_coeff         8 8 sph/solidMechanics/mg 1 1 ${cutoff} ${h} ${G} 1.81 ${c} 1.80 ${rho0} ${E} yes 0.3 ${lat} 0.5
pair_coeff         9 9 sph/solidMechanics/mg 1 1 ${cutoff} ${h} ${G} 1.81 ${c} 1.80 ${rho0} ${E} yes 0.3 ${lat} 0.5
pair_coeff         10 10 sph/solidMechanics/mg 1 1 ${cutoff} ${h} ${G} 1.81 ${c} 1.80 ${rho0} ${E} yes 0.3 ${lat} 0.5
pair_coeff         11 11 sph/solidMechanics/mg 1 1 ${cutoff} ${h} ${G} 1.81 ${c} 1.80 ${rho0} ${E} yes 0.3 ${lat} 0.5
pair_coeff         12 12 sph/solidMechanics/mg 1 1 ${cutoff} ${h} ${G} 1.81 ${c} 1.80 ${rho0} ${E} yes 0.3 ${lat} 0.5
pair_coeff         13 13 sph/solidMechanics/mg 1 1 ${cutoff} ${h} ${G} 1.81 ${c} 1.80 ${rho0} ${E} yes 0.3 ${lat} 0.5
pair_coeff         14 14 sph/solidMechanics/mg 1 1 ${cutoff} ${h} ${G} 1.81 ${c} 1.80 ${rho0} ${E} yes 0.3 ${lat} 0.5
pair_coeff         15 15 sph/solidMechanics/mg 1 1 ${cutoff} ${h} ${G} 1.81 ${c} 1.80 ${rho0} ${E} yes 0.3 ${lat} 0.5
pair_coeff         16 16 sph/solidMechanics/mg 1 1 ${cutoff} ${h} ${G} 1.81 ${c} 1.80 ${rho0} ${E} yes 0.3 ${lat} 0.5
pair_coeff         17 17 sph/solidMechanics/mg 1 1 ${cutoff} ${h} ${G} 1.81 ${c} 1.80 ${rho0} ${E} yes 0.3 ${lat} 0.5
pair_coeff         18 18 sph/solidMechanics/mg 1 1 ${cutoff} ${h} ${G} 1.81 ${c} 1.80 ${rho0} ${E} yes 0.3 ${lat} 0.5
pair_coeff         19 19 sph/solidMechanics/mg 1 1 ${cutoff} ${h} ${G} 1.81 ${c} 1.80 ${rho0} ${E} yes 0.3 ${lat} 0.5
pair_coeff         20 20 sph/solidMechanics/mg 1 1 ${cutoff} ${h} ${G} 1.81 ${c} 1.80 ${rho0} ${E} yes 0.3 ${lat} 0.5
pair_coeff         21 21 sph/solidMechanics/mg 1 1 ${cutoff} ${h} ${G} 1.81 ${c} 1.80 ${rho0} ${E} yes 0.3 ${lat} 0.5
pair_coeff         22 22 sph/solidMechanics/mg 1 1 ${cutoff} ${h} ${G} 1.81 ${c} 1.80 ${rho0} ${E} yes 0.3 ${lat} 0.5
pair_coeff         23 23 sph/solidMechanics/mg 1 1 ${cutoff} ${h} ${G} 1.81 ${c} 1.80 ${rho0} ${E} yes 0.3 ${lat} 0.5
pair_coeff         24 24 sph/solidMechanics/mg 1 1 ${cutoff} ${h} ${G} 1.81 ${c} 1.80 ${rho0} ${E} yes 0.3 ${lat} 0.5
pair_coeff         25 25 sph/solidMechanics/mg 1 1 ${cutoff} ${h} ${G} 1.81 ${c} 1.80 ${rho0} ${E} yes 0.3 ${lat} 0.5
pair_coeff         26 26 sph/solidMechanics/mg 1 1 ${cutoff} ${h} ${G} 1.81 ${c} 1.80 ${rho0} ${E} yes 0.3 ${lat} 0.5
pair_coeff         27 27 sph/solidMechanics/mg 1 1 ${cutoff} ${h} ${G} 1.81 ${c} 1.80 ${rho0} ${E} yes 0.3 ${lat} 0.5
pair_coeff         28 28 sph/solidMechanics/mg 1 1 ${cutoff} ${h} ${G} 1.81 ${c} 1.80 ${rho0} ${E} yes 0.3 ${lat} 0.5
pair_coeff         29 29 sph/solidMechanics/mg 1 1 ${cutoff} ${h} ${G} 1.81 ${c} 1.80 ${rho0} ${E} yes 0.3 ${lat} 0.5
pair_coeff         30 30 sph/solidMechanics/mg 1 1 ${cutoff} ${h} ${G} 1.81 ${c} 1.80 ${rho0} ${E} yes 0.3 ${lat} 0.5
pair_coeff         31 31 sph/solidMechanics/mg 1 1 ${cutoff} ${h} ${G} 1.81 ${c} 1.80 ${rho0} ${E} yes 0.3 ${lat} 0.5
pair_coeff         32 32 sph/solidMechanics/mg 1 1 ${cutoff} ${h} ${G} 1.81 ${c} 1.80 ${rho0} ${E} yes 0.3 ${lat} 0.5
pair_coeff         33 33 sph/solidMechanics/mg 1 1 ${cutoff} ${h} ${G} 1.81 ${c} 1.80 ${rho0} ${E} yes 0.3 ${lat} 0.5
pair_coeff         34 34 sph/solidMechanics/mg 1 1 ${cutoff} ${h} ${G} 1.81 ${c} 1.80 ${rho0} ${E} yes 0.3 ${lat} 0.5
pair_coeff         35 35 sph/solidMechanics/mg 1 1 ${cutoff} ${h} ${G} 1.81 ${c} 1.80 ${rho0} ${E} yes 0.3 ${lat} 0.5
pair_coeff         36 36 sph/solidMechanics/mg 1 1 ${cutoff} ${h} ${G} 1.81 ${c} 1.80 ${rho0} ${E} yes 0.3 ${lat} 0.5
pair_coeff         37 37 sph/solidMechanics/mg 1 1 ${cutoff} ${h} ${G} 1.81 ${c} 1.80 ${rho0} ${E} yes 0.3 ${lat} 0.5
pair_coeff         38 38 sph/solidMechanics/mg 1 1 ${cutoff} ${h} ${G} 1.81 ${c} 1.80 ${rho0} ${E} yes 0.3 ${lat} 0.5
pair_coeff         39 39 sph/solidMechanics/mg 1 1 ${cutoff} ${h} ${G} 1.81 ${c} 1.80 ${rho0} ${E} yes 0.3 ${lat} 0.5
pair_coeff         40 40 sph/solidMechanics/mg 1 1 ${cutoff} ${h} ${G} 1.81 ${c} 1.80 ${rho0} ${E} yes 0.3 ${lat} 0.5
pair_coeff         41 41 sph/solidMechanics/mg 1 1 ${cutoff} ${h} ${G} 1.81 ${c} 1.80 ${rho0} ${E} yes 0.3 ${lat} 0.5
pair_coeff         42 42 sph/solidMechanics/mg 1 1 ${cutoff} ${h} ${G} 1.81 ${c} 1.80 ${rho0} ${E} yes 0.3 ${lat} 0.5
pair_coeff         43 43 sph/solidMechanics/mg 1 1 ${cutoff} ${h} ${G} 1.81 ${c} 1.80 ${rho0} ${E} yes 0.3 ${lat} 0.5
pair_coeff         44 44 sph/solidMechanics/mg 1 1 ${cutoff} ${h} ${G} 1.81 ${c} 1.80 ${rho0} ${E} yes 0.3 ${lat} 0.5
pair_coeff         45 45 sph/solidMechanics/mg 1 1 ${cutoff} ${h} ${G} 1.81 ${c} 1.80 ${rho0} ${E} yes 0.3 ${lat} 0.5
pair_coeff         46 46 sph/solidMechanics/mg 1 1 ${cutoff} ${h} ${G} 1.81 ${c} 1.80 ${rho0} ${E} yes 0.3 ${lat} 0.5
pair_coeff         47 47 sph/solidMechanics/mg 1 1 ${cutoff} ${h} ${G} 1.81 ${c} 1.80 ${rho0} ${E} yes 0.3 ${lat} 0.5
pair_coeff         48 48 sph/solidMechanics/mg 1 1 ${cutoff} ${h} ${G} 1.81 ${c} 1.80 ${rho0} ${E} yes 0.3 ${lat} 0.5
pair_coeff         49 49 sph/solidMechanics/mg 1 1 ${cutoff} ${h} ${G} 1.81 ${c} 1.80 ${rho0} ${E} yes 0.3 ${lat} 0.5
pair_coeff         50 50 sph/solidMechanics/mg 1 1 ${cutoff} ${h} ${G} 1.81 ${c} 1.80 ${rho0} ${E} yes 0.3 ${lat} 0.5
pair_coeff         51 51 sph/solidMechanics/mg 1 1 ${cutoff} ${h} ${G} 1.81 ${c} 1.80 ${rho0} ${E} yes 0.3 ${lat} 0.5
pair_coeff         52 52 sph/solidMechanics/mg 1 1 ${cutoff} ${h} ${G} 1.81 ${c} 1.80 ${rho0} ${E} yes 0.3 ${lat} 0.5
pair_coeff         53 53 sph/solidMechanics/mg 1 1 ${cutoff} ${h} ${G} 1.81 ${c} 1.80 ${rho0} ${E} yes 0.3 ${lat} 0.5
pair_coeff         54 54 sph/solidMechanics/mg 1 1 ${cutoff} ${h} ${G} 1.81 ${c} 1.80 ${rho0} ${E} yes 0.3 ${lat} 0.5
pair_coeff         55 55 sph/solidMechanics/mg 1 1 ${cutoff} ${h} ${G} 1.81 ${c} 1.80 ${rho0} ${E} yes 0.3 ${lat} 0.5
pair_coeff         56 56 sph/solidMechanics/mg 1 1 ${cutoff} ${h} ${G} 1.81 ${c} 1.80 ${rho0} ${E} yes 0.3 ${lat} 0.5
pair_coeff         57 57 sph/solidMechanics/mg 1 1 ${cutoff} ${h} ${G} 1.81 ${c} 1.80 ${rho0} ${E} yes 0.3 ${lat} 0.5
pair_coeff         58 58 sph/solidMechanics/mg 1 1 ${cutoff} ${h} ${G} 1.81 ${c} 1.80 ${rho0} ${E} yes 0.3 ${lat} 0.5
pair_coeff         59 59 sph/solidMechanics/mg 1 1 ${cutoff} ${h} ${G} 1.81 ${c} 1.80 ${rho0} ${E} yes 0.3 ${lat} 0.5
pair_coeff         60 60 sph/solidMechanics/mg 1 1 ${cutoff} ${h} ${G} 1.81 ${c} 1.80 ${rho0} ${E} yes 0.3 ${lat} 0.5
pair_coeff         61 61 sph/solidMechanics/mg 1 1 ${cutoff} ${h} ${G} 1.81 ${c} 1.80 ${rho0} ${E} yes 0.3 ${lat} 0.5
pair_coeff         62 62 sph/solidMechanics/mg 1 1 ${cutoff} ${h} ${G} 1.81 ${c} 1.80 ${rho0} ${E} yes 0.3 ${lat} 0.5
pair_coeff         63 63 sph/solidMechanics/mg 1 1 ${cutoff} ${h} ${G} 1.81 ${c} 1.80 ${rho0} ${E} yes 0.3 ${lat} 0.5
pair_coeff         64 64 sph/solidMechanics/mg 1 1 ${cutoff} ${h} ${G} 1.81 ${c} 1.80 ${rho0} ${E} yes 0.3 ${lat} 0.5
pair_coeff         65 65 sph/solidMechanics/mg 1 1 ${cutoff} ${h} ${G} 1.81 ${c} 1.80 ${rho0} ${E} yes 0.3 ${lat} 0.5
pair_coeff         66 66 sph/solidMechanics/mg 1 1 ${cutoff} ${h} ${G} 1.81 ${c} 1.80 ${rho0} ${E} yes 0.3 ${lat} 0.5
pair_coeff         67 67 sph/solidMechanics/mg 1 1 ${cutoff} ${h} ${G} 1.81 ${c} 1.80 ${rho0} ${E} yes 0.3 ${lat} 0.5
pair_coeff         68 68 sph/solidMechanics/mg 1 1 ${cutoff} ${h} ${G} 1.81 ${c} 1.80 ${rho0} ${E} yes 0.3 ${lat} 0.5
pair_coeff         69 69 sph/solidMechanics/mg 1 1 ${cutoff} ${h} ${G} 1.81 ${c} 1.80 ${rho0} ${E} yes 0.3 ${lat} 0.5
pair_coeff         70 70 sph/solidMechanics/mg 1 1 ${cutoff} ${h} ${G} 1.81 ${c} 1.80 ${rho0} ${E} yes 0.3 ${lat} 0.5
pair_coeff         71 71 sph/solidMechanics/mg 1 1 ${cutoff} ${h} ${G} 1.81 ${c} 1.80 ${rho0} ${E} yes 0.3 ${lat} 0.5
pair_coeff         72 72 sph/solidMechanics/mg 1 1 ${cutoff} ${h} ${G} 1.81 ${c} 1.80 ${rho0} ${E} yes 0.3 ${lat} 0.5
pair_coeff         73 73 sph/solidMechanics/mg 1 1 ${cutoff} ${h} ${G} 1.81 ${c} 1.80 ${rho0} ${E} yes 0.3 ${lat} 0.5
pair_coeff         74 74 sph/solidMechanics/mg 1 1 ${cutoff} ${h} ${G} 1.81 ${c} 1.80 ${rho0} ${E} yes 0.3 ${lat} 0.5
pair_coeff         75 75 sph/solidMechanics/mg 1 1 ${cutoff} ${h} ${G} 1.81 ${c} 1.80 ${rho0} ${E} yes 0.3 ${lat} 0.5
pair_coeff         76 76 sph/solidMechanics/mg 1 1 ${cutoff} ${h} ${G} 1.81 ${c} 1.80 ${rho0} ${E} yes 0.3 ${lat} 0.5
pair_coeff         77 77 sph/solidMechanics/mg 1 1 ${cutoff} ${h} ${G} 1.81 ${c} 1.80 ${rho0} ${E} yes 0.3 ${lat} 0.5
pair_coeff         78 78 sph/solidMechanics/mg 1 1 ${cutoff} ${h} ${G} 1.81 ${c} 1.80 ${rho0} ${E} yes 0.3 ${lat} 0.5
pair_coeff         79 79 sph/solidMechanics/mg 1 1 ${cutoff} ${h} ${G} 1.81 ${c} 1.80 ${rho0} ${E} yes 0.3 ${lat} 0.5
pair_coeff         80 80 sph/solidMechanics/mg 1 1 ${cutoff} ${h} ${G} 1.81 ${c} 1.80 ${rho0} ${E} yes 0.3 ${lat} 0.5
pair_coeff         81 81 sph/solidMechanics/mg 1 1 ${cutoff} ${h} ${G} 1.81 ${c} 1.80 ${rho0} ${E} yes 0.3 ${lat} 0.5
pair_coeff         82 82 sph/solidMechanics/mg 1 1 ${cutoff} ${h} ${G} 1.81 ${c} 1.80 ${rho0} ${E} yes 0.3 ${lat} 0.5
pair_coeff         83 83 sph/solidMechanics/mg 1 1 ${cutoff} ${h} ${G} 1.81 ${c} 1.80 ${rho0} ${E} yes 0.3 ${lat} 0.5
pair_coeff         84 84 sph/solidMechanics/mg 1 1 ${cutoff} ${h} ${G} 1.81 ${c} 1.80 ${rho0} ${E} yes 0.3 ${lat} 0.5
pair_coeff         85 85 sph/solidMechanics/mg 1 1 ${cutoff} ${h} ${G} 1.81 ${c} 1.80 ${rho0} ${E} yes 0.3 ${lat} 0.5
pair_coeff         86 86 sph/solidMechanics/mg 1 1 ${cutoff} ${h} ${G} 1.81 ${c} 1.80 ${rho0} ${E} yes 0.3 ${lat} 0.5
pair_coeff         87 87 sph/solidMechanics/mg 1 1 ${cutoff} ${h} ${G} 1.81 ${c} 1.80 ${rho0} ${E} yes 0.3 ${lat} 0.5
pair_coeff         88 88 sph/solidMechanics/mg 1 1 ${cutoff} ${h} ${G} 1.81 ${c} 1.80 ${rho0} ${E} yes 0.3 ${lat} 0.5
pair_coeff         89 89 sph/solidMechanics/mg 1 1 ${cutoff} ${h} ${G} 1.81 ${c} 1.80 ${rho0} ${E} yes 0.3 ${lat} 0.5
pair_coeff         90 90 sph/solidMechanics/mg 1 1 ${cutoff} ${h} ${G} 1.81 ${c} 1.80 ${rho0} ${E} yes 0.3 ${lat} 0.5
pair_coeff         91 91 sph/solidMechanics/mg 1 1 ${cutoff} ${h} ${G} 1.81 ${c} 1.80 ${rho0} ${E} yes 0.3 ${lat} 0.5
pair_coeff         92 92 sph/solidMechanics/mg 1 1 ${cutoff} ${h} ${G} 1.81 ${c} 1.80 ${rho0} ${E} yes 0.3 ${lat} 0.5
pair_coeff         93 93 sph/solidMechanics/mg 1 1 ${cutoff} ${h} ${G} 1.81 ${c} 1.80 ${rho0} ${E} yes 0.3 ${lat} 0.5
pair_coeff         94 94 sph/solidMechanics/mg 1 1 ${cutoff} ${h} ${G} 1.81 ${c} 1.80 ${rho0} ${E} yes 0.3 ${lat} 0.5
pair_coeff         95 95 sph/solidMechanics/mg 1 1 ${cutoff} ${h} ${G} 1.81 ${c} 1.80 ${rho0} ${E} yes 0.3 ${lat} 0.5
pair_coeff         96 96 sph/solidMechanics/mg 1 1 ${cutoff} ${h} ${G} 1.81 ${c} 1.80 ${rho0} ${E} yes 0.3 ${lat} 0.5
pair_coeff         97 97 sph/solidMechanics/mg 1 1 ${cutoff} ${h} ${G} 1.81 ${c} 1.80 ${rho0} ${E} yes 0.3 ${lat} 0.5
pair_coeff         98 98 sph/solidMechanics/mg 1 1 ${cutoff} ${h} ${G} 1.81 ${c} 1.80 ${rho0} ${E} yes 0.3 ${lat} 0.5
pair_coeff         99 99 sph/solidMechanics/mg 1 1 ${cutoff} ${h} ${G} 1.81 ${c} 1.80 ${rho0} ${E} yes 0.3 ${lat} 0.5
pair_coeff         100 100 sph/solidMechanics/mg 1 1 ${cutoff} ${h} ${G} 1.81 ${c} 1.80 ${rho0} ${E} yes 0.3 ${lat} 0.5
pair_coeff         101 101 sph/solidMechanics/mg 1 1 ${cutoff} ${h} ${G} 1.81 ${c} 1.80 ${rho0} ${E} yes 0.3 ${lat} 0.5
pair_coeff         102 102 sph/solidMechanics/mg 1 1 ${cutoff} ${h} ${G} 1.81 ${c} 1.80 ${rho0} ${E} yes 0.3 ${lat} 0.5
pair_coeff         103 103 sph/solidMechanics/mg 1 1 ${cutoff} ${h} ${G} 1.81 ${c} 1.80 ${rho0} ${E} yes 0.3 ${lat} 0.5
pair_coeff         104 104 sph/solidMechanics/mg 1 1 ${cutoff} ${h} ${G} 1.81 ${c} 1.80 ${rho0} ${E} yes 0.3 ${lat} 0.5
pair_coeff         105 105 sph/solidMechanics/mg 1 1 ${cutoff} ${h} ${G} 1.81 ${c} 1.80 ${rho0} ${E} yes 0.3 ${lat} 0.5
pair_coeff         106 106 sph/solidMechanics/mg 1 1 ${cutoff} ${h} ${G} 1.81 ${c} 1.80 ${rho0} ${E} yes 0.3 ${lat} 0.5
pair_coeff         107 107 sph/solidMechanics/mg 1 1 ${cutoff} ${h} ${G} 1.81 ${c} 1.80 ${rho0} ${E} yes 0.3 ${lat} 0.5
pair_coeff         108 108 sph/solidMechanics/mg 1 1 ${cutoff} ${h} ${G} 1.81 ${c} 1.80 ${rho0} ${E} yes 0.3 ${lat} 0.5
pair_coeff         109 109 sph/solidMechanics/mg 1 1 ${cutoff} ${h} ${G} 1.81 ${c} 1.80 ${rho0} ${E} yes 0.3 ${lat} 0.5
pair_coeff         110 110 sph/solidMechanics/mg 1 1 ${cutoff} ${h} ${G} 1.81 ${c} 1.80 ${rho0} ${E} yes 0.3 ${lat} 0.5
pair_coeff         111 111 sph/solidMechanics/mg 1 1 ${cutoff} ${h} ${G} 1.81 ${c} 1.80 ${rho0} ${E} yes 0.3 ${lat} 0.5
pair_coeff         112 112 sph/solidMechanics/mg 1 1 ${cutoff} ${h} ${G} 1.81 ${c} 1.80 ${rho0} ${E} yes 0.3 ${lat} 0.5
pair_coeff         113 113 sph/solidMechanics/mg 1 1 ${cutoff} ${h} ${G} 1.81 ${c} 1.80 ${rho0} ${E} yes 0.3 ${lat} 0.5
pair_coeff         114 114 sph/solidMechanics/mg 1 1 ${cutoff} ${h} ${G} 1.81 ${c} 1.80 ${rho0} ${E} yes 0.3 ${lat} 0.5
pair_coeff         115 115 sph/solidMechanics/mg 1 1 ${cutoff} ${h} ${G} 1.81 ${c} 1.80 ${rho0} ${E} yes 0.3 ${lat} 0.5
pair_coeff         116 116 sph/solidMechanics/mg 1 1 ${cutoff} ${h} ${G} 1.81 ${c} 1.80 ${rho0} ${E} yes 0.3 ${lat} 0.5
pair_coeff         117 117 sph/solidMechanics/mg 1 1 ${cutoff} ${h} ${G} 1.81 ${c} 1.80 ${rho0} ${E} yes 0.3 ${lat} 0.5
pair_coeff         118 118 sph/solidMechanics/mg 1 1 ${cutoff} ${h} ${G} 1.81 ${c} 1.80 ${rho0} ${E} yes 0.3 ${lat} 0.5
pair_coeff         119 119 sph/solidMechanics/mg 1 1 ${cutoff} ${h} ${G} 1.81 ${c} 1.80 ${rho0} ${E} yes 0.3 ${lat} 0.5
pair_coeff         120 120 sph/solidMechanics/mg 1 1 ${cutoff} ${h} ${G} 1.81 ${c} 1.80 ${rho0} ${E} yes 0.3 ${lat} 0.5
pair_coeff         121 121 sph/solidMechanics/mg 1 1 ${cutoff} ${h} ${G} 1.81 ${c} 1.80 ${rho0} ${E} yes 0.3 ${lat} 0.5
pair_coeff         122 122 sph/solidMechanics/mg 1 1 ${cutoff} ${h} ${G} 1.81 ${c} 1.80 ${rho0} ${E} yes 0.3 ${lat} 0.5
pair_coeff         123 123 sph/solidMechanics/mg 1 1 ${cutoff} ${h} ${G} 1.81 ${c} 1.80 ${rho0} ${E} yes 0.3 ${lat} 0.5
pair_coeff         124 124 sph/solidMechanics/mg 1 1 ${cutoff} ${h} ${G} 1.81 ${c} 1.80 ${rho0} ${E} yes 0.3 ${lat} 0.5
pair_coeff         125 125 sph/solidMechanics/mg 1 1 ${cutoff} ${h} ${G} 1.81 ${c} 1.80 ${rho0} ${E} yes 0.3 ${lat} 0.5
pair_coeff         126 126 sph/solidMechanics/mg 1 1 ${cutoff} ${h} ${G} 1.81 ${c} 1.80 ${rho0} ${E} yes 0.3 ${lat} 0.5
pair_coeff         127 127 sph/solidMechanics/mg 1 1 ${cutoff} ${h} ${G} 1.81 ${c} 1.80 ${rho0} ${E} yes 0.3 ${lat} 0.5
pair_coeff         128 128 sph/solidMechanics/mg 1 1 ${cutoff} ${h} ${G} 1.81 ${c} 1.80 ${rho0} ${E} yes 0.3 ${lat} 0.5
pair_coeff         129 129 sph/solidMechanics/mg 1 1 ${cutoff} ${h} ${G} 1.81 ${c} 1.80 ${rho0} ${E} yes 0.3 ${lat} 0.5
pair_coeff         130 130 sph/solidMechanics/mg 1 1 ${cutoff} ${h} ${G} 1.81 ${c} 1.80 ${rho0} ${E} yes 0.3 ${lat} 0.5
pair_coeff         131 131 sph/solidMechanics/mg 1 1 ${cutoff} ${h} ${G} 1.81 ${c} 1.80 ${rho0} ${E} yes 0.3 ${lat} 0.5
pair_coeff         132 132 sph/solidMechanics/mg 1 1 ${cutoff} ${h} ${G} 1.81 ${c} 1.80 ${rho0} ${E} yes 0.3 ${lat} 0.5
pair_coeff         133 133 sph/solidMechanics/mg 1 1 ${cutoff} ${h} ${G} 1.81 ${c} 1.80 ${rho0} ${E} yes 0.3 ${lat} 0.5
pair_coeff         134 134 sph/solidMechanics/mg 1 1 ${cutoff} ${h} ${G} 1.81 ${c} 1.80 ${rho0} ${E} yes 0.3 ${lat} 0.5
pair_coeff         135 135 sph/solidMechanics/mg 1 1 ${cutoff} ${h} ${G} 1.81 ${c} 1.80 ${rho0} ${E} yes 0.3 ${lat} 0.5
pair_coeff         136 136 sph/solidMechanics/mg 1 1 ${cutoff} ${h} ${G} 1.81 ${c} 1.80 ${rho0} ${E} yes 0.3 ${lat} 0.5
pair_coeff         137 137 sph/solidMechanics/mg 1 1 ${cutoff} ${h} ${G} 1.81 ${c} 1.80 ${rho0} ${E} yes 0.3 ${lat} 0.5
pair_coeff         138 138 sph/solidMechanics/mg 1 1 ${cutoff} ${h} ${G} 1.81 ${c} 1.80 ${rho0} ${E} yes 0.3 ${lat} 0.5
pair_coeff         139 139 sph/solidMechanics/mg 1 1 ${cutoff} ${h} ${G} 1.81 ${c} 1.80 ${rho0} ${E} yes 0.3 ${lat} 0.5
pair_coeff         140 140 sph/solidMechanics/mg 1 1 ${cutoff} ${h} ${G} 1.81 ${c} 1.80 ${rho0} ${E} yes 0.3 ${lat} 0.5
pair_coeff         141 141 sph/solidMechanics/mg 1 1 ${cutoff} ${h} ${G} 1.81 ${c} 1.80 ${rho0} ${E} yes 0.3 ${lat} 0.5
pair_coeff         142 142 sph/solidMechanics/mg 1 1 ${cutoff} ${h} ${G} 1.81 ${c} 1.80 ${rho0} ${E} yes 0.3 ${lat} 0.5
pair_coeff         143 143 sph/solidMechanics/mg 1 1 ${cutoff} ${h} ${G} 1.81 ${c} 1.80 ${rho0} ${E} yes 0.3 ${lat} 0.5
pair_coeff         144 144 sph/solidMechanics/mg 1 1 ${cutoff} ${h} ${G} 1.81 ${c} 1.80 ${rho0} ${E} yes 0.3 ${lat} 0.5
pair_coeff         145 145 sph/solidMechanics/mg 1 1 ${cutoff} ${h} ${G} 1.81 ${c} 1.80 ${rho0} ${E} yes 0.3 ${lat} 0.5
pair_coeff         146 146 sph/solidMechanics/mg 1 1 ${cutoff} ${h} ${G} 1.81 ${c} 1.80 ${rho0} ${E} yes 0.3 ${lat} 0.5
pair_coeff         147 147 sph/solidMechanics/mg 1 1 ${cutoff} ${h} ${G} 1.81 ${c} 1.80 ${rho0} ${E} yes 0.3 ${lat} 0.5
pair_coeff         148 148 sph/solidMechanics/mg 1 1 ${cutoff} ${h} ${G} 1.81 ${c} 1.80 ${rho0} ${E} yes 0.3 ${lat} 0.5
pair_coeff         149 149 sph/solidMechanics/mg 1 1 ${cutoff} ${h} ${G} 1.81 ${c} 1.80 ${rho0} ${E} yes 0.3 ${lat} 0.5
pair_coeff         150 150 sph/solidMechanics/mg 1 1 ${cutoff} ${h} ${G} 1.81 ${c} 1.80 ${rho0} ${E} yes 0.3 ${lat} 0.5
pair_coeff         151 151 sph/solidMechanics/mg 1 1 ${cutoff} ${h} ${G} 1.81 ${c} 1.80 ${rho0} ${E} yes 0.3 ${lat} 0.5
pair_coeff         152 152 sph/solidMechanics/mg 1 1 ${cutoff} ${h} ${G} 1.81 ${c} 1.80 ${rho0} ${E} yes 0.3 ${lat} 0.5
pair_coeff         153 153 sph/solidMechanics/mg 1 1 ${cutoff} ${h} ${G} 1.81 ${c} 1.80 ${rho0} ${E} yes 0.3 ${lat} 0.5
pair_coeff         154 154 sph/solidMechanics/mg 1 1 ${cutoff} ${h} ${G} 1.81 ${c} 1.80 ${rho0} ${E} yes 0.3 ${lat} 0.5
pair_coeff         155 155 sph/solidMechanics/mg 1 1 ${cutoff} ${h} ${G} 1.81 ${c} 1.80 ${rho0} ${E} yes 0.3 ${lat} 0.5
pair_coeff         156 156 sph/solidMechanics/mg 1 1 ${cutoff} ${h} ${G} 1.81 ${c} 1.80 ${rho0} ${E} yes 0.3 ${lat} 0.5
pair_coeff         157 157 sph/solidMechanics/mg 1 1 ${cutoff} ${h} ${G} 1.81 ${c} 1.80 ${rho0} ${E} yes 0.3 ${lat} 0.5
pair_coeff         158 158 sph/solidMechanics/mg 1 1 ${cutoff} ${h} ${G} 1.81 ${c} 1.80 ${rho0} ${E} yes 0.3 ${lat} 0.5
pair_coeff         159 159 sph/solidMechanics/mg 1 1 ${cutoff} ${h} ${G} 1.81 ${c} 1.80 ${rho0} ${E} yes 0.3 ${lat} 0.5
pair_coeff         160 160 sph/solidMechanics/mg 1 1 ${cutoff} ${h} ${G} 1.81 ${c} 1.80 ${rho0} ${E} yes 0.3 ${lat} 0.5
pair_coeff         161 161 sph/solidMechanics/mg 1 1 ${cutoff} ${h} ${G} 1.81 ${c} 1.80 ${rho0} ${E} yes 0.3 ${lat} 0.5
pair_coeff         162 162 sph/solidMechanics/mg 1 1 ${cutoff} ${h} ${G} 1.81 ${c} 1.80 ${rho0} ${E} yes 0.3 ${lat} 0.5
pair_coeff         163 163 sph/solidMechanics/mg 1 1 ${cutoff} ${h} ${G} 1.81 ${c} 1.80 ${rho0} ${E} yes 0.3 ${lat} 0.5
pair_coeff         164 164 sph/solidMechanics/mg 1 1 ${cutoff} ${h} ${G} 1.81 ${c} 1.80 ${rho0} ${E} yes 0.3 ${lat} 0.5
pair_coeff         165 165 sph/solidMechanics/mg 1 1 ${cutoff} ${h} ${G} 1.81 ${c} 1.80 ${rho0} ${E} yes 0.3 ${lat} 0.5
pair_coeff         166 166 sph/solidMechanics/mg 1 1 ${cutoff} ${h} ${G} 1.81 ${c} 1.80 ${rho0} ${E} yes 0.3 ${lat} 0.5
pair_coeff         167 167 sph/solidMechanics/mg 1 1 ${cutoff} ${h} ${G} 1.81 ${c} 1.80 ${rho0} ${E} yes 0.3 ${lat} 0.5
pair_coeff         168 168 sph/solidMechanics/mg 1 1 ${cutoff} ${h} ${G} 1.81 ${c} 1.80 ${rho0} ${E} yes 0.3 ${lat} 0.5
pair_coeff         169 169 sph/solidMechanics/mg 1 1 ${cutoff} ${h} ${G} 1.81 ${c} 1.80 ${rho0} ${E} yes 0.3 ${lat} 0.5
pair_coeff         170 170 sph/solidMechanics/mg 1 1 ${cutoff} ${h} ${G} 1.81 ${c} 1.80 ${rho0} ${E} yes 0.3 ${lat} 0.5
pair_coeff         171 171 sph/solidMechanics/mg 1 1 ${cutoff} ${h} ${G} 1.81 ${c} 1.80 ${rho0} ${E} yes 0.3 ${lat} 0.5
pair_coeff         172 172 sph/solidMechanics/mg 1 1 ${cutoff} ${h} ${G} 1.81 ${c} 1.80 ${rho0} ${E} yes 0.3 ${lat} 0.5
pair_coeff         173 173 sph/solidMechanics/mg 1 1 ${cutoff} ${h} ${G} 1.81 ${c} 1.80 ${rho0} ${E} yes 0.3 ${lat} 0.5
pair_coeff         174 174 sph/solidMechanics/mg 1 1 ${cutoff} ${h} ${G} 1.81 ${c} 1.80 ${rho0} ${E} yes 0.3 ${lat} 0.5
pair_coeff         175 175 sph/solidMechanics/mg 1 1 ${cutoff} ${h} ${G} 1.81 ${c} 1.80 ${rho0} ${E} yes 0.3 ${lat} 0.5
pair_coeff         176 176 sph/solidMechanics/mg 1 1 ${cutoff} ${h} ${G} 1.81 ${c} 1.80 ${rho0} ${E} yes 0.3 ${lat} 0.5
pair_coeff         177 177 sph/solidMechanics/mg 1 1 ${cutoff} ${h} ${G} 1.81 ${c} 1.80 ${rho0} ${E} yes 0.3 ${lat} 0.5
pair_coeff         178 178 sph/solidMechanics/mg 1 1 ${cutoff} ${h} ${G} 1.81 ${c} 1.80 ${rho0} ${E} yes 0.3 ${lat} 0.5
pair_coeff         179 179 sph/solidMechanics/mg 1 1 ${cutoff} ${h} ${G} 1.81 ${c} 1.80 ${rho0} ${E} yes 0.3 ${lat} 0.5
pair_coeff         180 180 sph/solidMechanics/mg 1 1 ${cutoff} ${h} ${G} 1.81 ${c} 1.80 ${rho0} ${E} yes 0.3 ${lat} 0.5
pair_coeff         181 181 sph/solidMechanics/mg 1 1 ${cutoff} ${h} ${G} 1.81 ${c} 1.80 ${rho0} ${E} yes 0.3 ${lat} 0.5
pair_coeff         182 182 sph/solidMechanics/mg 1 1 ${cutoff} ${h} ${G} 1.81 ${c} 1.80 ${rho0} ${E} yes 0.3 ${lat} 0.5
pair_coeff         183 183 sph/solidMechanics/mg 1 1 ${cutoff} ${h} ${G} 1.81 ${c} 1.80 ${rho0} ${E} yes 0.3 ${lat} 0.5
pair_coeff         184 184 sph/solidMechanics/mg 1 1 ${cutoff} ${h} ${G} 1.81 ${c} 1.80 ${rho0} ${E} yes 0.3 ${lat} 0.5
pair_coeff         185 185 sph/solidMechanics/mg 1 1 ${cutoff} ${h} ${G} 1.81 ${c} 1.80 ${rho0} ${E} yes 0.3 ${lat} 0.5
pair_coeff         186 186 sph/solidMechanics/mg 1 1 ${cutoff} ${h} ${G} 1.81 ${c} 1.80 ${rho0} ${E} yes 0.3 ${lat} 0.5
pair_coeff         187 187 sph/solidMechanics/mg 1 1 ${cutoff} ${h} ${G} 1.81 ${c} 1.80 ${rho0} ${E} yes 0.3 ${lat} 0.5
pair_coeff         188 188 sph/solidMechanics/mg 1 1 ${cutoff} ${h} ${G} 1.81 ${c} 1.80 ${rho0} ${E} yes 0.3 ${lat} 0.5
pair_coeff         189 189 sph/solidMechanics/mg 1 1 ${cutoff} ${h} ${G} 1.81 ${c} 1.80 ${rho0} ${E} yes 0.3 ${lat} 0.5
pair_coeff         190 190 sph/solidMechanics/mg 1 1 ${cutoff} ${h} ${G} 1.81 ${c} 1.80 ${rho0} ${E} yes 0.3 ${lat} 0.5
pair_coeff         191 191 sph/solidMechanics/mg 1 1 ${cutoff} ${h} ${G} 1.81 ${c} 1.80 ${rho0} ${E} yes 0.3 ${lat} 0.5
pair_coeff         192 192 sph/solidMechanics/mg 1 1 ${cutoff} ${h} ${G} 1.81 ${c} 1.80 ${rho0} ${E} yes 0.3 ${lat} 0.5
pair_coeff         193 193 sph/solidMechanics/mg 1 1 ${cutoff} ${h} ${G} 1.81 ${c} 1.80 ${rho0} ${E} yes 0.3 ${lat} 0.5
pair_coeff         194 194 sph/solidMechanics/mg 1 1 ${cutoff} ${h} ${G} 1.81 ${c} 1.80 ${rho0} ${E} yes 0.3 ${lat} 0.5
pair_coeff         195 195 sph/solidMechanics/mg 1 1 ${cutoff} ${h} ${G} 1.81 ${c} 1.80 ${rho0} ${E} yes 0.3 ${lat} 0.5
pair_coeff         196 196 sph/solidMechanics/mg 1 1 ${cutoff} ${h} ${G} 1.81 ${c} 1.80 ${rho0} ${E} yes 0.3 ${lat} 0.5
pair_coeff         197 197 sph/solidMechanics/mg 1 1 ${cutoff} ${h} ${G} 1.81 ${c} 1.80 ${rho0} ${E} yes 0.3 ${lat} 0.5
pair_coeff         198 198 sph/solidMechanics/mg 1 1 ${cutoff} ${h} ${G} 1.81 ${c} 1.80 ${rho0} ${E} yes 0.3 ${lat} 0.5
pair_coeff         199 199 sph/solidMechanics/mg 1 1 ${cutoff} ${h} ${G} 1.81 ${c} 1.80 ${rho0} ${E} yes 0.3 ${lat} 0.5
pair_coeff         200 200 sph/solidMechanics/mg 1 1 ${cutoff} ${h} ${G} 1.81 ${c} 1.80 ${rho0} ${E} yes 0.3 ${lat} 0.5
pair_coeff         201 201 sph/solidMechanics/mg 1 1 ${cutoff} ${h} ${G} 1.81 ${c} 1.80 ${rho0} ${E} yes 0.3 ${lat} 0.5
pair_coeff         202 202 sph/solidMechanics/mg 1 1 ${cutoff} ${h} ${G} 1.81 ${c} 1.80 ${rho0} ${E} yes 0.3 ${lat} 0.5
pair_coeff         203 203 sph/solidMechanics/mg 1 1 ${cutoff} ${h} ${G} 1.81 ${c} 1.80 ${rho0} ${E} yes 0.3 ${lat} 0.5
pair_coeff         204 204 sph/solidMechanics/mg 1 1 ${cutoff} ${h} ${G} 1.81 ${c} 1.80 ${rho0} ${E} yes 0.3 ${lat} 0.5
pair_coeff         205 205 sph/solidMechanics/mg 1 1 ${cutoff} ${h} ${G} 1.81 ${c} 1.80 ${rho0} ${E} yes 0.3 ${lat} 0.5
pair_coeff         206 206 sph/solidMechanics/mg 1 1 ${cutoff} ${h} ${G} 1.81 ${c} 1.80 ${rho0} ${E} yes 0.3 ${lat} 0.5
pair_coeff         207 207 sph/solidMechanics/mg 1 1 ${cutoff} ${h} ${G} 1.81 ${c} 1.80 ${rho0} ${E} yes 0.3 ${lat} 0.5
pair_coeff         208 208 sph/solidMechanics/mg 1 1 ${cutoff} ${h} ${G} 1.81 ${c} 1.80 ${rho0} ${E} yes 0.3 ${lat} 0.5
pair_coeff         209 209 sph/solidMechanics/mg 1 1 ${cutoff} ${h} ${G} 1.81 ${c} 1.80 ${rho0} ${E} yes 0.3 ${lat} 0.5
pair_coeff         210 210 sph/solidMechanics/mg 1 1 ${cutoff} ${h} ${G} 1.81 ${c} 1.80 ${rho0} ${E} yes 0.3 ${lat} 0.5
pair_coeff         211 211 sph/solidMechanics/mg 1 1 ${cutoff} ${h} ${G} 1.81 ${c} 1.80 ${rho0} ${E} yes 0.3 ${lat} 0.5
pair_coeff         212 212 sph/solidMechanics/mg 1 1 ${cutoff} ${h} ${G} 1.81 ${c} 1.80 ${rho0} ${E} yes 0.3 ${lat} 0.5
pair_coeff         213 213 sph/solidMechanics/mg 1 1 ${cutoff} ${h} ${G} 1.81 ${c} 1.80 ${rho0} ${E} yes 0.3 ${lat} 0.5
pair_coeff         214 214 sph/solidMechanics/mg 1 1 ${cutoff} ${h} ${G} 1.81 ${c} 1.80 ${rho0} ${E} yes 0.3 ${lat} 0.5
pair_coeff         215 215 sph/solidMechanics/mg 1 1 ${cutoff} ${h} ${G} 1.81 ${c} 1.80 ${rho0} ${E} yes 0.3 ${lat} 0.5
pair_coeff         216 216 sph/solidMechanics/mg 1 1 ${cutoff} ${h} ${G} 1.81 ${c} 1.80 ${rho0} ${E} yes 0.3 ${lat} 0.5
pair_coeff         217 217 sph/solidMechanics/mg 1 1 ${cutoff} ${h} ${G} 1.81 ${c} 1.80 ${rho0} ${E} yes 0.3 ${lat} 0.5
pair_coeff         218 218 sph/solidMechanics/mg 1 1 ${cutoff} ${h} ${G} 1.81 ${c} 1.80 ${rho0} ${E} yes 0.3 ${lat} 0.5
pair_coeff         219 219 sph/solidMechanics/mg 1 1 ${cutoff} ${h} ${G} 1.81 ${c} 1.80 ${rho0} ${E} yes 0.3 ${lat} 0.5
pair_coeff         220 220 sph/solidMechanics/mg 1 1 ${cutoff} ${h} ${G} 1.81 ${c} 1.80 ${rho0} ${E} yes 0.3 ${lat} 0.5
pair_coeff         221 221 sph/solidMechanics/mg 1 1 ${cutoff} ${h} ${G} 1.81 ${c} 1.80 ${rho0} ${E} yes 0.3 ${lat} 0.5
pair_coeff         222 222 sph/solidMechanics/mg 1 1 ${cutoff} ${h} ${G} 1.81 ${c} 1.80 ${rho0} ${E} yes 0.3 ${lat} 0.5