dimension          2
units              si
atom_style         meso/multiphase
boundary		   p p p

variable		   xlow equal  -5e-3
variable		   xhig equal  5e-3
variable		   ylow equal  -30e-3 #-1e-1
variable		   yhig equal  30e-3 #1e-1
variable		   zlow equal -1e-5
variable		   zhig equal  1e-5


#read_data		data.dat
# create simulation box
region             box block ${xlow} ${xhig} ${ylow} ${yhig} ${zlow} ${zhig} units box
create_box         1 box

# we are using cubicspline kernel
#variable		   radius equal 50e-3*0.048580185017
#variable		   radius equal 3.026e-3*0.094636278506
#variable		   radius equal 50e-3*0.094636278506
variable		   radius equal 8e-5
variable		   lat equal 2*${radius} #4.7e-3
variable		   h equal ${lat}*1.5
variable		   cutoff equal ${h}*2
variable		   cutoff2 equal ${lat}
variable		   h2 equal ${cutoff2}*0.5
variable		   cutoff3 equal ${radius}
variable		   h3 equal ${lat}*2.5
variable		   cutoff3 equal ${h}*2

variable		   wxlow equal  -10e-3
variable		   wxhig equal  10e-3
variable		   wylow equal  -20e-3
variable		   wyhig equal  3.5e-3
variable		   wyhign equal  -10e-3
variable		   wylown equal  -18e-3

variable		   wxlow2 equal  ${xlow}+${lat}*2
variable		   wxhig2 equal  ${xhig}-${lat}*2
variable		   wylow2 equal  ${ylow}+${lat}*5
variable		   wylow3 equal  ${ylow}+${lat}*7
variable		   wyhig2 equal  ${yhig}-${lat}*6

lattice            sq ${lat}

region			   wall3 block EDGE EDGE EDGE EDGE EDGE EDGE side in units box
region			   wall2 block ${wxlow2} ${wxhig2} EDGE EDGE EDGE EDGE side out units box
region			   wall1 block ${wxlow2} ${wxhig2} EDGE EDGE EDGE EDGE side in units box
region             wall intersect 2  wall3 wall2
create_atoms	   1 region wall
group 			   wall region wall
create_atoms	   1 region wall1
group			   waterFilm region wall1
region			   water2 block ${wxlow2} ${wxhig2} ${wylow2} ${wylow3} EDGE EDGE side in units box
group 	   		   waterFilm2 region water2

variable		   E equal 200e9
variable		   nu equal 0.30
variable		   G equal 77e9 #${E}/(2.0*(1.0+${nu}))
variable		   K equal 169.208e9 #2.0*${G}*(1.0+${nu})/3.0/(1.0-2.0*${nu})
variable		   c equal 3600 #5800
variable		   c1 equal 200 #1486 #5800 #1
variable		   sigma0 equal 634.42e6 #350e6
variable		   B equal 147.98e6 #275e6
variable		   C equal 0.0170 #0.022
variable		   epsilonDot0 equal 1
variable		   Tref equal 298
variable		   Tmelt equal 1811
variable		   n equal 0.36
variable		   m equal 1
variable		   rho_solid equal 7850
variable		   rho_liquid equal 1000
variable		   d0 equal ${radius}*2.0
variable		   thetaC equal 70
variable		   mass_solid equal ${rho_solid}*${lat}*${lat}  #0.04517
variable		   mass_liquid equal ${rho_liquid}*${lat}*${lat}  #0.04517

mass			   1 ${mass_liquid}

set				   type 1 meso_phi 1000
set				   type 1 meso_cv 1
set				   type 1 meso_e 0 # 1.26e6
set				   type 1 meso_viscosity 1000e-3 
set				   type 1 meso_radius ${radius} 
set				   type 1 meso_csound ${c1} 
set				   type 1 mass ${mass_liquid}
set                type 1 meso_rho ${rho_liquid}

variable		   u equal 0.2 #0.767 #${c}*0.005
velocity		   waterFilm set 0 -${u} 0 units box

pair_style         hybrid/overlay sph/taitwater/morris # /mg = Mie-Gruneisen #/Murnaghan p = c0^2(rho - rho_solid)

pair_coeff         1 1 sph/taitwater/morris ${rho_liquid} ${c1} 1000e-3 ${cutoff}  

fix                gfix all gravity 0 vector 0 -1 0
#fix                PressureGrad waterFilm addforce 0 -2.4e-7 0
fix                PressureGrad waterFilm addforce 0 -2.4e-6 0

compute            rho_peratom all meso_rho/atom
compute            e_peratom all meso_e/atom
compute            ke_peratom all ke/atom
compute            esph all reduce sum c_e_peratom
compute            ke all ke
variable           etot equal c_ke+c_esph+f_gfix

# do full time integration for shear driver and fluid, but keep walls stationary
fix                integrate_water waterFilm meso
fix                integrate_stationary wall meso/stationary

compute         1 all sph/stress/atom
compute         12 all sph/strain/atom
compute         13 all sph/artStress/atom

compute         2 all meso_e/atom

dump               dump_id all custom 1000 dumpPois.lammpstrj type id x y z vx vy vz fx fy fz p rho 
dump_modify        dump_id first yes

thermo             100
variable			binwidth equal ${lat}*10

fix     vyProfiles waterFilm ave/spatial 10 10 1000 x lower 5 vy ave running file vy.profile

#fix					aveForce all ave/time 1 250 250 v_fcmx v_fcmy ave one file force.dat
thermo_style       custom step c_esph c_ke f_gfix v_etot # v_vcmx v_vcmy v_fcmx v_fcmy v_tmass
thermo_modify      norm no

neighbor           ${lat} bin
comm_modify        vel yes
neigh_modify       delay 0 every 1 #check no binsize 0  once no
thermo_modify	   lost ignore norm no
timestep           1.0e-8
run                1000000
